Route #1: 75 4 68 6 51 17 40 12
Route #2: 67 34 52 54 13 27 45 29 48
Route #3: 30 74 28 64 42 41 43 1 73 62
Route #4: 33 63 16 49 24 23 56 22 61 2
Route #5: 57 15 5 37 20 70 60 71 69 36 47 21
Route #6: 46 8 19 59 14 53 35 7
Route #7: 11 66 65 38 10 31 72 58
Route #8: 26 39 9 25 55 18 50 32 44 3
Cost 800
